p edge 20 39 10
v 3 3 5 6
v 1 11
v 3 4 12 20
v 2 13 16
v 1 15
v 2 8 17
v 2 9 18
v 2 2 14
v 2 1 7
v 2 10 19
e 1 11
e 2 6
e 2 17
e 2 19
e 3 6
e 3 10
e 3 17
e 4 8
e 4 13
e 4 20
e 5 8
e 5 16
e 5 19
e 6 7
e 6 8
e 7 11
e 7 14
e 8 10
e 8 11
e 8 13
e 8 15
e 8 17
e 9 10
e 9 16
e 9 17
e 9 20
e 10 15
e 10 16
e 10 18
e 11 14
e 11 18
e 11 19
e 11 20
e 12 13
e 12 20
e 15 18
e 15 20
e 16 20
e 17 19
